
  32    4
  10   10   10   10

   0   0   0   0   0   3 2 3 4 
   6  10  10  10  10   2 6 5 
  10  10  10  10  10   2 7 6 
   8  10  10  10  10   3 12 9 6 
   1  10  10  10  10   5 26 12 10 9 8 
   8  10  10  10  10   4 26 11 10 8 
   3  10  10  10  10   4 26 12 11 9 
   8  10  10  10  10  12 24 23 22 21 20 19 18 17 16 15 14 13 
   9  10  10  10  10  10 24 23 21 19 18 17 16 15 14 13 
   2  10  10  10  10   9 24 23 22 20 19 17 16 14 13 
   3  10  10  10  10   9 24 23 22 20 18 16 15 14 13 
   1  10  10  10  10   6 24 23 17 15 14 13 
   9  10  10  10  10   2 27 25 
   1  10  10  10  10   2 27 25 
   1  10  10  10  10   2 27 25 
   2  10  10  10  10   2 27 25 
   8  10  10  10  10   2 27 25 
   7  10  10  10  10   2 27 25 
   3  10  10  10  10   2 27 25 
   5  10  10  10  10   2 27 25 
   4  10  10  10  10   2 27 25 
   1  10  10  10  10   3 29 28 27 
   9  10  10  10  10   2 31 25 
   6  10  10  10  10   1 25 
   5  10  10  10  10   3 30 29 28 
  10  10  10  10  10   3 31 29 28 
   8  10  10  10  10   2 31 30 
   8  10  10  10  10   1 32
  10  10  10  10  10   1 32
   5  10  10  10  10   1 32
   4  10  10  10  10   1 32
   0   0   0   0   0   0 
